; PUSH cw_2 DUP1 DUP1 SLOAD PUSH cw_2 SWAP1 => PUSH cw_2 DUP1 DUP1 DUP2 SLOAD
(set-option :produce-proofs true)
; 
(set-info :status unknown)
(declare-fun storage_t ((_ BitVec 256) (_ BitVec 256) Int (_ BitVec 256)) (_ BitVec 256))
(declare-fun w_2 () (_ BitVec 256))
(declare-fun storage_s ((_ BitVec 256) (_ BitVec 256) Int (_ BitVec 256)) (_ BitVec 256))
(declare-fun exc_halt_t (Int) Bool)
(declare-fun exc_halt_s (Int) Bool)
(declare-fun stack_t ((_ BitVec 256) (_ BitVec 256) Int (_ BitVec 6)) (_ BitVec 256))
(declare-fun stack_s ((_ BitVec 256) (_ BitVec 256) Int (_ BitVec 6)) (_ BitVec 256))
(declare-fun sc_t (Int) (_ BitVec 6))
(declare-fun sc_s (Int) (_ BitVec 6))
(declare-fun used_gas_t ((_ BitVec 256) (_ BitVec 256) Int) Int)
(declare-fun used_gas_s ((_ BitVec 256) (_ BitVec 256) Int) Int)
(assert
 (exists ((x_SLOAD_0 (_ BitVec 256)) )(let (($x5336 (forall ((w (_ BitVec 256)) )(let ((?x656 (storage_t x_SLOAD_0 w_2 5 w)))
 (let ((?x10638 (storage_s x_SLOAD_0 w_2 6 w)))
 (= ?x10638 ?x656))))
 ))
 (let (($x886 (exc_halt_t 5)))
 (let (($x772 (exc_halt_s 6)))
 (let (($x889 (= $x772 $x886)))
 (let (($x2294 (forall ((n (_ BitVec 6)) )(let ((?x8457 (stack_t x_SLOAD_0 w_2 5 n)))
 (let ((?x8649 (stack_s x_SLOAD_0 w_2 6 n)))
 (let (($x5489 (= ?x8649 ?x8457)))
 (let ((?x919 (sc_t 5)))
 (let (($x644 (bvsle ?x919 n)))
 (or $x644 $x5489)))))))
 ))
 (let ((?x919 (sc_t 5)))
 (let ((?x926 (sc_s 6)))
 (let (($x929 (= ?x926 ?x919)))
 (let ((?x2935 (used_gas_t x_SLOAD_0 w_2 0)))
 (let ((?x9580 (used_gas_s x_SLOAD_0 w_2 0)))
 (let (($x3602 (= ?x9580 ?x2935)))
 (let (($x10647 (forall ((w (_ BitVec 256)) )(let ((?x4765 (storage_t x_SLOAD_0 w_2 0 w)))
 (let ((?x7369 (storage_s x_SLOAD_0 w_2 0 w)))
 (= ?x7369 ?x4765))))
 ))
 (let (($x56 (exc_halt_t 0)))
 (let (($x57 (exc_halt_s 0)))
 (let (($x58 (= $x57 $x56)))
 (let (($x8429 (forall ((n (_ BitVec 6)) )(let ((?x1142 (stack_t x_SLOAD_0 w_2 0 n)))
 (let ((?x6342 (stack_s x_SLOAD_0 w_2 0 n)))
 (let (($x7006 (= ?x6342 ?x1142)))
 (let ((?x63 (sc_t 0)))
 (let (($x2695 (bvsle ?x63 n)))
 (or $x2695 $x7006)))))))
 ))
 (let ((?x63 (sc_t 0)))
 (let ((?x72 (sc_s 0)))
 (let (($x73 (= ?x72 ?x63)))
 (let (($x458 (= $x886 (or (exc_halt_t 4) (not (bvsle (_ bv0 6) (bvadd (_ bv63 6) (sc_t 4))))))))
 (let (($x8544 (forall ((w (_ BitVec 256)) )(let ((?x9703 (storage_t x_SLOAD_0 w_2 4 w)))
 (let ((?x656 (storage_t x_SLOAD_0 w_2 5 w)))
 (= ?x656 ?x9703))))
 ))
 (let (($x10315 (forall ((n (_ BitVec 6)) )(or (= (stack_t x_SLOAD_0 w_2 5 n) (stack_t x_SLOAD_0 w_2 4 n)) (bvsle (bvadd (_ bv63 6) (sc_t 4)) n)))
 ))
 (let ((?x3757 (sc_t 4)))
 (let (($x9261 (= ?x919 ?x3757)))
 (let (($x7581 (= (used_gas_t x_SLOAD_0 w_2 5) (+ 200 (used_gas_t x_SLOAD_0 w_2 4)))))
 (let ((?x3514 (bvadd (_ bv63 6) ?x3757)))
 (let ((?x8150 (stack_t x_SLOAD_0 w_2 4 ?x3514)))
 (let (($x2366 (= (stack_t x_SLOAD_0 w_2 5 (bvadd (_ bv63 6) ?x919)) (storage_t x_SLOAD_0 w_2 4 ?x8150))))
 (let (($x10336 (exc_halt_t 3)))
 (let (($x1227 (not (= ((_ extract 6 6) (bvadd (_ bv1 7) (concat (_ bv0 1) (sc_t 3)))) (_ bv0 1)))))
 (let (($x3723 (exc_halt_t 4)))
 (let (($x5547 (forall ((w (_ BitVec 256)) )(let ((?x9305 (storage_t x_SLOAD_0 w_2 3 w)))
 (let ((?x9703 (storage_t x_SLOAD_0 w_2 4 w)))
 (= ?x9703 ?x9305))))
 ))
 (let (($x5193 (forall ((n (_ BitVec 6)) )(or (bvsle (bvadd (_ bv62 6) (sc_t 3)) n) (= (stack_t x_SLOAD_0 w_2 4 n) (stack_t x_SLOAD_0 w_2 3 n))))
 ))
 (let (($x3244 (= ?x3757 (bvadd (_ bv1 6) (sc_t 3)))))
 (let ((?x10136 (used_gas_t x_SLOAD_0 w_2 4)))
 (let ((?x2012 (sc_t 3)))
 (let ((?x8054 (bvadd (_ bv63 6) ?x2012)))
 (let ((?x1837 (stack_t x_SLOAD_0 w_2 3 ?x8054)))
 (let ((?x8350 (bvadd (_ bv62 6) ?x2012)))
 (let ((?x1683 (stack_t x_SLOAD_0 w_2 3 ?x8350)))
 (let (($x5615 (not (bvsle (_ bv0 6) (bvadd (_ bv63 6) (sc_t 2))))))
 (let (($x1242 (not (= ((_ extract 6 6) (bvadd (_ bv1 7) (concat (_ bv0 1) (sc_t 2)))) (_ bv0 1)))))
 (let (($x903 (exc_halt_t 2)))
 (let (($x9245 (= $x10336 (or $x903 $x1242 $x5615))))
 (let (($x8376 (forall ((w (_ BitVec 256)) )(let ((?x6558 (storage_t x_SLOAD_0 w_2 2 w)))
 (let ((?x9305 (storage_t x_SLOAD_0 w_2 3 w)))
 (= ?x9305 ?x6558))))
 ))
 (let (($x2195 (forall ((n (_ BitVec 6)) )(let ((?x4056 (sc_t 2)))
 (let ((?x2466 (bvadd (_ bv63 6) ?x4056)))
 (let (($x1412 (bvsle ?x2466 n)))
 (or (= (stack_t x_SLOAD_0 w_2 3 n) (stack_t x_SLOAD_0 w_2 2 n)) $x1412)))))
 ))
 (let (($x4906 (= ?x2012 (bvadd (_ bv1 6) (sc_t 2)))))
 (let ((?x6689 (used_gas_t x_SLOAD_0 w_2 3)))
 (let ((?x4056 (sc_t 2)))
 (let ((?x2466 (bvadd (_ bv63 6) ?x4056)))
 (let ((?x3088 (stack_t x_SLOAD_0 w_2 2 ?x2466)))
 (let (($x6575 (not (bvsle (_ bv0 6) (bvadd (_ bv63 6) (sc_t 1))))))
 (let (($x1920 (exc_halt_t 1)))
 (let (($x1208 (not (= ((_ extract 6 6) (bvadd (_ bv1 7) (concat (_ bv0 1) (sc_t 1)))) (_ bv0 1)))))
 (let (($x10654 (= $x903 (or $x1208 $x1920 $x6575))))
 (let (($x10731 (forall ((w (_ BitVec 256)) )(let ((?x10176 (storage_t x_SLOAD_0 w_2 1 w)))
 (let ((?x6558 (storage_t x_SLOAD_0 w_2 2 w)))
 (= ?x6558 ?x10176))))
 ))
 (let (($x3382 (forall ((n (_ BitVec 6)) )(let ((?x4023 (sc_t 1)))
 (let ((?x5606 (bvadd (_ bv63 6) ?x4023)))
 (let (($x481 (bvsle ?x5606 n)))
 (or $x481 (= (stack_t x_SLOAD_0 w_2 2 n) (stack_t x_SLOAD_0 w_2 1 n)))))))
 ))
 (let (($x1496 (= ?x4056 (bvadd (_ bv1 6) (sc_t 1)))))
 (let ((?x6121 (used_gas_t x_SLOAD_0 w_2 2)))
 (let ((?x4023 (sc_t 1)))
 (let ((?x5606 (bvadd (_ bv63 6) ?x4023)))
 (let ((?x8471 (stack_t x_SLOAD_0 w_2 1 ?x5606)))
 (let (($x5833 (= $x1920 (or $x56 (not (= ((_ extract 6 6) (bvadd (_ bv1 7) (concat (_ bv0 1) ?x63))) (_ bv0 1)))))))
 (let (($x2127 (forall ((w (_ BitVec 256)) )(let ((?x4765 (storage_t x_SLOAD_0 w_2 0 w)))
 (let ((?x10176 (storage_t x_SLOAD_0 w_2 1 w)))
 (= ?x10176 ?x4765))))
 ))
 (let (($x8320 (forall ((n (_ BitVec 6)) )(let ((?x63 (sc_t 0)))
 (let (($x2695 (bvsle ?x63 n)))
 (or $x2695 (= (stack_t x_SLOAD_0 w_2 1 n) (stack_t x_SLOAD_0 w_2 0 n))))))
 ))
 (let (($x10931 (= ?x4023 (bvadd (_ bv1 6) ?x63))))
 (let (($x6505 (= $x772 (or (exc_halt_s 5) (not (bvsle (_ bv0 6) (bvadd (_ bv62 6) (sc_s 5))))))))
 (let (($x11220 (forall ((w (_ BitVec 256)) )(let ((?x7153 (storage_s x_SLOAD_0 w_2 5 w)))
 (let ((?x10638 (storage_s x_SLOAD_0 w_2 6 w)))
 (= ?x10638 ?x7153))))
 ))
 (let (($x2230 (forall ((n (_ BitVec 6)) )(let ((?x805 (sc_s 5)))
 (let ((?x4520 (bvadd (_ bv62 6) ?x805)))
 (let (($x9195 (bvsle ?x4520 n)))
 (or (= (stack_s x_SLOAD_0 w_2 6 n) (stack_s x_SLOAD_0 w_2 5 n)) $x9195)))))
 ))
 (let ((?x805 (sc_s 5)))
 (let (($x8973 (= ?x926 ?x805)))
 (let (($x944 (= (used_gas_s x_SLOAD_0 w_2 6) (+ 3 (used_gas_s x_SLOAD_0 w_2 5)))))
 (let (($x1118 (= (stack_s x_SLOAD_0 w_2 6 (bvadd (_ bv62 6) ?x926)) (stack_s x_SLOAD_0 w_2 5 (bvadd (_ bv63 6) ?x805)))))
 (let (($x8743 (= (stack_s x_SLOAD_0 w_2 6 (bvadd (_ bv63 6) ?x926)) (stack_s x_SLOAD_0 w_2 5 (bvadd (_ bv62 6) ?x805)))))
 (let (($x3274 (not (= ((_ extract 6 6) (bvadd (_ bv1 7) (concat (_ bv0 1) (sc_s 4)))) (_ bv0 1)))))
 (let (($x64 (exc_halt_s 4)))
 (let (($x3979 (exc_halt_s 5)))
 (let (($x2534 (forall ((w (_ BitVec 256)) )(let ((?x7093 (storage_s x_SLOAD_0 w_2 4 w)))
 (let ((?x7153 (storage_s x_SLOAD_0 w_2 5 w)))
 (= ?x7153 ?x7093))))
 ))
 (let (($x8042 (forall ((n (_ BitVec 6)) )(or (bvsle (sc_s 4) n) (= (stack_s x_SLOAD_0 w_2 5 n) (stack_s x_SLOAD_0 w_2 4 n))))
 ))
 (let (($x4735 (= ?x805 (bvadd (_ bv1 6) (sc_s 4)))))
 (let ((?x3245 (used_gas_s x_SLOAD_0 w_2 5)))
 (let (($x1169 (= $x64 (or (exc_halt_s 3) (not (bvsle (_ bv0 6) (bvadd (_ bv63 6) (sc_s 3))))))))
 (let (($x2510 (forall ((w (_ BitVec 256)) )(let ((?x2701 (storage_s x_SLOAD_0 w_2 3 w)))
 (let ((?x7093 (storage_s x_SLOAD_0 w_2 4 w)))
 (= ?x7093 ?x2701))))
 ))
 (let (($x2291 (forall ((n (_ BitVec 6)) )(let ((?x275 (sc_s 3)))
 (let ((?x11204 (bvadd (_ bv63 6) ?x275)))
 (let (($x1953 (bvsle ?x11204 n)))
 (or $x1953 (= (stack_s x_SLOAD_0 w_2 4 n) (stack_s x_SLOAD_0 w_2 3 n)))))))
 ))
 (let ((?x275 (sc_s 3)))
 (let ((?x4305 (sc_s 4)))
 (let (($x9792 (= ?x4305 ?x275)))
 (let ((?x2668 (used_gas_s x_SLOAD_0 w_2 4)))
 (let ((?x11204 (bvadd (_ bv63 6) ?x275)))
 (let ((?x5745 (stack_s x_SLOAD_0 w_2 3 ?x11204)))
 (let (($x5788 (= (stack_s x_SLOAD_0 w_2 4 (bvadd (_ bv63 6) ?x4305)) (storage_s x_SLOAD_0 w_2 3 ?x5745))))
 (let (($x3908 (not (bvsle (_ bv0 6) (bvadd (_ bv63 6) (sc_s 2))))))
 (let (($x247 (exc_halt_s 2)))
 (let (($x110 (not (= ((_ extract 6 6) (bvadd (_ bv1 7) (concat (_ bv0 1) (sc_s 2)))) (_ bv0 1)))))
 (let (($x292 (exc_halt_s 3)))
 (let (($x9706 (forall ((w (_ BitVec 256)) )(let ((?x2011 (storage_s x_SLOAD_0 w_2 2 w)))
 (let ((?x2701 (storage_s x_SLOAD_0 w_2 3 w)))
 (= ?x2701 ?x2011))))
 ))
 (let (($x1394 (forall ((n (_ BitVec 6)) )(let ((?x218 (sc_s 2)))
 (let ((?x3669 (bvadd (_ bv63 6) ?x218)))
 (let (($x9669 (bvsle ?x3669 n)))
 (or (= (stack_s x_SLOAD_0 w_2 3 n) (stack_s x_SLOAD_0 w_2 2 n)) $x9669)))))
 ))
 (let (($x389 (= ?x275 (bvadd (_ bv1 6) (sc_s 2)))))
 (let ((?x2247 (used_gas_s x_SLOAD_0 w_2 3)))
 (let ((?x218 (sc_s 2)))
 (let ((?x3669 (bvadd (_ bv63 6) ?x218)))
 (let ((?x5681 (stack_s x_SLOAD_0 w_2 2 ?x3669)))
 (let (($x10968 (not (= ((_ extract 6 6) (bvadd (_ bv1 7) (concat (_ bv0 1) (sc_s 1)))) (_ bv0 1)))))
 (let (($x5509 (not (bvsle (_ bv0 6) (bvadd (_ bv63 6) (sc_s 1))))))
 (let (($x189 (exc_halt_s 1)))
 (let (($x9919 (= $x247 (or $x189 $x5509 $x10968))))
 (let (($x6294 (forall ((w (_ BitVec 256)) )(let ((?x3019 (storage_s x_SLOAD_0 w_2 1 w)))
 (let ((?x2011 (storage_s x_SLOAD_0 w_2 2 w)))
 (= ?x2011 ?x3019))))
 ))
 (let (($x2421 (forall ((n (_ BitVec 6)) )(let ((?x154 (sc_s 1)))
 (let ((?x1806 (bvadd (_ bv63 6) ?x154)))
 (let (($x10480 (bvsle ?x1806 n)))
 (or (= (stack_s x_SLOAD_0 w_2 2 n) (stack_s x_SLOAD_0 w_2 1 n)) $x10480)))))
 ))
 (let (($x6833 (= ?x218 (bvadd (_ bv1 6) (sc_s 1)))))
 (let ((?x1918 (used_gas_s x_SLOAD_0 w_2 2)))
 (let ((?x154 (sc_s 1)))
 (let ((?x1806 (bvadd (_ bv63 6) ?x154)))
 (let ((?x8612 (stack_s x_SLOAD_0 w_2 1 ?x1806)))
 (let (($x255 (= $x189 (or $x57 (not (= ((_ extract 6 6) (bvadd (_ bv1 7) (concat (_ bv0 1) ?x72))) (_ bv0 1)))))))
 (let (($x7223 (forall ((w (_ BitVec 256)) )(let ((?x7369 (storage_s x_SLOAD_0 w_2 0 w)))
 (let ((?x3019 (storage_s x_SLOAD_0 w_2 1 w)))
 (= ?x3019 ?x7369))))
 ))
 (let (($x8463 (forall ((n (_ BitVec 6)) )(let ((?x72 (sc_s 0)))
 (let (($x6067 (bvsle ?x72 n)))
 (or $x6067 (= (stack_s x_SLOAD_0 w_2 1 n) (stack_s x_SLOAD_0 w_2 0 n))))))
 ))
 (let (($x10892 (= ?x154 (bvadd (_ bv1 6) ?x72))))
 (let (($x7331 (forall ((w (_ BitVec 256)) )(let ((?x2350 (ite (= w (stack_s x_SLOAD_0 w_2 3 (bvadd (_ bv63 6) (sc_s 3)))) x_SLOAD_0 (_ bv0 256))))
 (let ((?x7369 (storage_s x_SLOAD_0 w_2 0 w)))
 (= ?x7369 ?x2350))))
 ))
 (let (($x8643 (= ?x9580 0)))
 (let (($x4490 (not $x57)))
 (let (($x136 (= ?x72 (_ bv0 6))))
 (and $x136 $x4490 $x8643 $x7331 (= (stack_s x_SLOAD_0 w_2 1 ?x72) w_2) (= (used_gas_s x_SLOAD_0 w_2 1) (+ 3 ?x9580)) $x10892 $x8463 $x7223 $x255 (= ?x5681 ?x8612) (= (stack_s x_SLOAD_0 w_2 2 ?x1806) ?x8612) (= ?x1918 (+ 3 (used_gas_s x_SLOAD_0 w_2 1))) $x6833 $x2421 $x6294 $x9919 (= ?x5745 ?x5681) (= (stack_s x_SLOAD_0 w_2 3 ?x3669) ?x5681) (= ?x2247 (+ 3 ?x1918)) $x389 $x1394 $x9706 (= $x292 (or $x110 $x247 $x3908)) $x5788 (= ?x2668 (+ 200 ?x2247)) $x9792 $x2291 $x2510 $x1169 (= (stack_s x_SLOAD_0 w_2 5 ?x4305) w_2) (= ?x3245 (+ 3 ?x2668)) $x4735 $x8042 $x2534 (= $x3979 (or $x64 $x3274)) $x8743 $x1118 $x944 $x8973 $x2230 $x11220 $x6505 (= (stack_t x_SLOAD_0 w_2 1 ?x63) w_2) (= (used_gas_t x_SLOAD_0 w_2 1) (+ 3 ?x2935)) $x10931 $x8320 $x2127 $x5833 (= ?x3088 ?x8471) (= (stack_t x_SLOAD_0 w_2 2 ?x5606) ?x8471) (= ?x6121 (+ 3 (used_gas_t x_SLOAD_0 w_2 1))) $x1496 $x3382 $x10731 $x10654 (= ?x1837 ?x3088) (= (stack_t x_SLOAD_0 w_2 3 ?x2466) ?x3088) (= ?x6689 (+ 3 ?x6121)) $x4906 $x2195 $x8376 $x9245 (= ?x8150 ?x1683) (= (stack_t x_SLOAD_0 w_2 4 ?x8350) ?x1683) (= (stack_t x_SLOAD_0 w_2 4 ?x8054) ?x1837) (= ?x10136 (+ 3 ?x6689)) $x3244 $x5193 $x5547 (= $x3723 (or $x1227 (not (bvsle (_ bv0 6) ?x8350)) $x10336)) $x2366 $x7581 $x9261 $x10315 $x8544 $x458 $x73 $x8429 $x58 $x10647 $x3602 (not (and $x929 $x2294 $x889 $x5336)))))))))))))))))))))))))))))))))))))))))))))))))))))))))))))))))))))))))))))))))))))))))))))))))))))))))))))))))))))))))))))
 )
(check-sat)
(get-proof)
